0 3180.28
2401 3083.24
4802 3003.6
7203 2936.36
9604 2883.33
12005 2843.38
14406 2812.97
16807 2790.27
19208 2774.46
21609 2763.77
24010 2757.69
26411 2754.57
28812 2752.04
31213 2750.67
33614 2750.36
36015 2750.13
38416 2750.05
40817 2749.92
